c BMC problem generated by NuSMV
c Time steps from 0 to 10, 1 State Variables, 0 Frozen Variables and 0 Input Variables
c Model to Dimacs Conversion Table
c 
c @@@@@ Time 0
c CNF variable 3 => Time 0, Model Variable shitstorm
c 
c @@@@@ Time 1
c CNF variable 4 => Time 1, Model Variable shitstorm
c 
c @@@@@ Time 2
c CNF variable 5 => Time 2, Model Variable shitstorm
c 
c @@@@@ Time 3
c CNF variable 8 => Time 3, Model Variable shitstorm
c 
c @@@@@ Time 4
c CNF variable 10 => Time 4, Model Variable shitstorm
c 
c @@@@@ Time 5
c CNF variable 12 => Time 5, Model Variable shitstorm
c 
c @@@@@ Time 6
c CNF variable 14 => Time 6, Model Variable shitstorm
c 
c @@@@@ Time 7
c CNF variable 16 => Time 7, Model Variable shitstorm
c 
c @@@@@ Time 8
c CNF variable 18 => Time 8, Model Variable shitstorm
c 
c @@@@@ Time 9
c CNF variable 20 => Time 9, Model Variable shitstorm
c 
c @@@@@ Time 10
c CNF variable 22 => Time 10, Model Variable shitstorm
c 
c Beginning of the DIMACS dumping
p cnf 1 2
c Warning: the false constant is printed out
1 0
-1 0
0 0